2,1,7,1,7,2,9,1,4,1,6,1,12,1,1,2,12,2,12,3,12,4,10,4,5,3,6,3,5,4;13,1,13,2,10,2,4,2,9,2,3,2,8,1,8,2,8,3,5,2,8,4;11,1,11,2,11,3,7,4,1,1,6,2,4,3,1,3,2,2,13,4,3,3,1,4,2,4,6,4;10,1,7,3,13,3,3,1,5,1,10,3,11,4,4,4,2,3,9,3,3,4,9,4;
